(declare-const x String)
(declare-const y String)
(declare-const m String)
(declare-const n String)
(assert (str.in.re x (re.* (re.++ (str.to.re "$") (str.to.re "")))))
(assert (= 0 (str.to.int x)))
(assert (not (= x "bs""$p")))
(assert (not (= x "")))
(assert (not (= x "pIAC")))
(assert (not (= x "pp")))
(assert (not (= x "")))
(assert (not (= x "$p")))
(assert (not (= x "|")))
(check-sat)
(get-model)
